* (set-option :incremental false)
* (set-info :status unsat)
* (set-logic QF_BV)
* (declare-fun v0 () (_ BitVec 1))
* (check-sat-assuming ( (bvsgt v0 v0) ))
* unsat
* #variable= 1 #constraint= 1
-1 x1 +1 x1 >= 1;
